
  32    1
  10

   0   0   3 2 3 5 
   4   5   2 6 4 
   2   7   2 6 4 
   9   5   4 13 11 10 7 
   5   4   3 13 10 7 
   5   2   5 18 13 12 10 9 
   8   7   4 18 12 9 8 
   5   8   4 19 16 15 14 
   7   4   4 19 17 15 14 
   6   5   4 20 19 16 14 
  10  10   4 20 19 16 14 
   3  10   3 20 16 14 
  10   6   2 15 14 
   7   5   4 26 25 22 21 
   1   3   4 26 25 24 20 
   6   4   1 17 
   6   9   4 26 25 24 23 
   4  10   3 24 23 21 
  10   5   3 31 28 26 
   9   3   2 28 23 
   6   3   4 31 30 28 27 
   6   6   1 23 
   7   7   3 31 30 27 
   1   7   3 30 28 27 
   4   6   3 30 28 27 
   7   7   2 30 27 
   5   5   1 29 
   7   7   1 29 
   1   5   1 32
   3   7   1 32
   7   8   1 32
   0   0   0 
